p edge 80 1251
e 1 3
e 1 5
e 1 8
e 1 9
e 1 16
e 1 17
e 1 19
e 1 23
e 1 29
e 1 32
e 1 34
e 1 35
e 1 41
e 1 43
e 1 47
e 1 50
e 1 51
e 1 59
e 1 60
e 1 61
e 1 62
e 1 64
e 1 68
e 1 69
e 1 72
e 1 73
e 1 75
e 1 76
e 1 78
e 1 79
e 2 17
e 2 25
e 2 27
e 2 28
e 2 32
e 2 42
e 2 43
e 2 46
e 2 48
e 2 49
e 2 51
e 2 52
e 2 54
e 2 62
e 2 63
e 2 66
e 2 67
e 2 68
e 2 70
e 2 73
e 2 74
e 2 75
e 2 77
e 2 78
e 3 4
e 3 5
e 3 8
e 3 10
e 3 12
e 3 14
e 3 15
e 3 16
e 3 17
e 3 18
e 3 23
e 3 24
e 3 27
e 3 32
e 3 38
e 3 40
e 3 41
e 3 43
e 3 46
e 3 54
e 3 57
e 3 62
e 3 64
e 3 69
e 3 72
e 3 73
e 3 75
e 4 9
e 4 10
e 4 16
e 4 18
e 4 20
e 4 22
e 4 23
e 4 25
e 4 26
e 4 28
e 4 31
e 4 33
e 4 35
e 4 37
e 4 39
e 4 40
e 4 42
e 4 46
e 4 51
e 4 54
e 4 56
e 4 57
e 4 61
e 4 62
e 4 64
e 4 69
e 4 72
e 4 73
e 4 76
e 4 77
e 4 80
e 5 6
e 5 10
e 5 12
e 5 13
e 5 16
e 5 17
e 5 18
e 5 19
e 5 23
e 5 24
e 5 25
e 5 26
e 5 27
e 5 29
e 5 30
e 5 36
e 5 43
e 5 46
e 5 47
e 5 48
e 5 49
e 5 50
e 5 51
e 5 53
e 5 55
e 5 58
e 5 59
e 5 60
e 5 65
e 5 68
e 5 70
e 5 71
e 5 72
e 5 73
e 5 78
e 6 9
e 6 12
e 6 13
e 6 16
e 6 17
e 6 18
e 6 23
e 6 25
e 6 28
e 6 31
e 6 32
e 6 33
e 6 35
e 6 36
e 6 37
e 6 40
e 6 41
e 6 42
e 6 45
e 6 47
e 6 48
e 6 52
e 6 54
e 6 59
e 6 61
e 6 63
e 6 69
e 6 70
e 6 78
e 7 12
e 7 13
e 7 17
e 7 21
e 7 23
e 7 28
e 7 31
e 7 34
e 7 36
e 7 38
e 7 39
e 7 42
e 7 43
e 7 44
e 7 45
e 7 47
e 7 51
e 7 52
e 7 53
e 7 54
e 7 57
e 7 59
e 7 60
e 7 64
e 7 69
e 7 71
e 7 79
e 8 10
e 8 12
e 8 13
e 8 19
e 8 20
e 8 21
e 8 24
e 8 26
e 8 27
e 8 31
e 8 39
e 8 44
e 8 47
e 8 52
e 8 55
e 8 56
e 8 58
e 8 62
e 8 65
e 8 67
e 8 68
e 8 70
e 8 77
e 8 78
e 8 80
e 9 10
e 9 11
e 9 12
e 9 13
e 9 14
e 9 16
e 9 17
e 9 18
e 9 19
e 9 20
e 9 24
e 9 29
e 9 33
e 9 36
e 9 38
e 9 39
e 9 41
e 9 46
e 9 47
e 9 50
e 9 51
e 9 52
e 9 54
e 9 56
e 9 62
e 9 63
e 9 68
e 9 72
e 9 74
e 9 77
e 9 80
e 10 12
e 10 13
e 10 16
e 10 17
e 10 19
e 10 20
e 10 25
e 10 27
e 10 29
e 10 31
e 10 32
e 10 33
e 10 34
e 10 37
e 10 39
e 10 40
e 10 42
e 10 43
e 10 45
e 10 50
e 10 52
e 10 56
e 10 60
e 10 61
e 10 66
e 10 72
e 10 76
e 10 80
e 11 16
e 11 18
e 11 20
e 11 23
e 11 25
e 11 27
e 11 28
e 11 31
e 11 33
e 11 34
e 11 38
e 11 39
e 11 40
e 11 41
e 11 43
e 11 44
e 11 46
e 11 48
e 11 49
e 11 51
e 11 52
e 11 53
e 11 54
e 11 56
e 11 62
e 11 64
e 11 65
e 11 67
e 11 71
e 11 76
e 11 77
e 12 16
e 12 18
e 12 21
e 12 23
e 12 24
e 12 26
e 12 27
e 12 28
e 12 30
e 12 31
e 12 34
e 12 35
e 12 37
e 12 39
e 12 45
e 12 47
e 12 49
e 12 50
e 12 52
e 12 53
e 12 59
e 12 62
e 12 64
e 12 65
e 12 68
e 12 69
e 12 70
e 12 72
e 13 18
e 13 24
e 13 25
e 13 27
e 13 29
e 13 34
e 13 37
e 13 38
e 13 39
e 13 41
e 13 45
e 13 48
e 13 49
e 13 51
e 13 57
e 13 58
e 13 59
e 13 61
e 13 65
e 13 77
e 13 79
e 14 16
e 14 19
e 14 20
e 14 23
e 14 24
e 14 25
e 14 26
e 14 28
e 14 29
e 14 31
e 14 33
e 14 35
e 14 36
e 14 38
e 14 39
e 14 41
e 14 45
e 14 46
e 14 49
e 14 52
e 14 53
e 14 55
e 14 59
e 14 61
e 14 62
e 14 64
e 14 70
e 14 73
e 14 76
e 14 80
e 15 17
e 15 18
e 15 24
e 15 25
e 15 27
e 15 30
e 15 32
e 15 34
e 15 36
e 15 37
e 15 39
e 15 44
e 15 47
e 15 48
e 15 49
e 15 50
e 15 51
e 15 52
e 15 53
e 15 54
e 15 55
e 15 56
e 15 61
e 15 62
e 15 64
e 15 66
e 15 68
e 15 69
e 15 73
e 15 75
e 15 77
e 15 79
e 16 17
e 16 19
e 16 20
e 16 21
e 16 27
e 16 29
e 16 30
e 16 33
e 16 34
e 16 43
e 16 46
e 16 47
e 16 49
e 16 50
e 16 53
e 16 54
e 16 56
e 16 57
e 16 58
e 16 60
e 16 63
e 16 68
e 16 69
e 16 72
e 16 73
e 16 79
e 16 80
e 17 19
e 17 20
e 17 22
e 17 25
e 17 26
e 17 31
e 17 34
e 17 38
e 17 39
e 17 41
e 17 42
e 17 43
e 17 45
e 17 47
e 17 49
e 17 54
e 17 57
e 17 58
e 17 61
e 17 63
e 17 64
e 17 72
e 17 77
e 17 78
e 17 79
e 18 19
e 18 26
e 18 27
e 18 29
e 18 30
e 18 31
e 18 32
e 18 34
e 18 37
e 18 40
e 18 44
e 18 45
e 18 48
e 18 49
e 18 51
e 18 52
e 18 54
e 18 55
e 18 57
e 18 58
e 18 59
e 18 62
e 18 63
e 18 65
e 18 66
e 18 70
e 18 71
e 18 74
e 18 75
e 18 78
e 19 21
e 19 22
e 19 23
e 19 24
e 19 25
e 19 28
e 19 31
e 19 33
e 19 34
e 19 37
e 19 43
e 19 45
e 19 47
e 19 48
e 19 51
e 19 58
e 19 59
e 19 61
e 19 63
e 19 67
e 19 69
e 19 71
e 19 74
e 19 79
e 19 80
e 20 24
e 20 26
e 20 29
e 20 32
e 20 33
e 20 34
e 20 36
e 20 40
e 20 43
e 20 48
e 20 51
e 20 52
e 20 55
e 20 57
e 20 60
e 20 61
e 20 63
e 20 67
e 20 69
e 20 71
e 20 72
e 20 74
e 20 75
e 20 77
e 20 80
e 21 24
e 21 25
e 21 27
e 21 29
e 21 30
e 21 32
e 21 35
e 21 41
e 21 42
e 21 45
e 21 49
e 21 55
e 21 56
e 21 57
e 21 58
e 21 59
e 21 62
e 21 64
e 21 65
e 21 67
e 21 68
e 21 72
e 21 74
e 21 78
e 21 79
e 22 26
e 22 27
e 22 28
e 22 32
e 22 36
e 22 37
e 22 39
e 22 43
e 22 44
e 22 46
e 22 47
e 22 51
e 22 54
e 22 55
e 22 56
e 22 57
e 22 60
e 22 61
e 22 64
e 22 65
e 22 68
e 22 70
e 22 74
e 23 24
e 23 25
e 23 26
e 23 28
e 23 31
e 23 34
e 23 39
e 23 40
e 23 41
e 23 43
e 23 44
e 23 46
e 23 48
e 23 49
e 23 50
e 23 52
e 23 55
e 23 57
e 23 59
e 23 65
e 23 76
e 23 77
e 23 78
e 24 26
e 24 27
e 24 28
e 24 32
e 24 33
e 24 36
e 24 38
e 24 40
e 24 41
e 24 43
e 24 44
e 24 45
e 24 53
e 24 56
e 24 58
e 24 60
e 24 61
e 24 62
e 24 68
e 24 71
e 24 72
e 24 73
e 24 74
e 24 75
e 24 76
e 24 77
e 24 79
e 25 27
e 25 29
e 25 32
e 25 36
e 25 38
e 25 42
e 25 44
e 25 45
e 25 48
e 25 49
e 25 50
e 25 51
e 25 52
e 25 53
e 25 55
e 25 60
e 25 62
e 25 67
e 25 69
e 25 73
e 25 79
e 25 80
e 26 27
e 26 29
e 26 32
e 26 42
e 26 45
e 26 47
e 26 50
e 26 52
e 26 53
e 26 55
e 26 57
e 26 58
e 26 60
e 26 64
e 26 65
e 26 70
e 26 73
e 26 80
e 27 33
e 27 34
e 27 41
e 27 42
e 27 44
e 27 48
e 27 51
e 27 52
e 27 55
e 27 58
e 27 59
e 27 60
e 27 61
e 27 67
e 27 68
e 27 72
e 27 73
e 27 75
e 27 80
e 28 29
e 28 31
e 28 32
e 28 33
e 28 37
e 28 41
e 28 42
e 28 45
e 28 49
e 28 50
e 28 51
e 28 52
e 28 54
e 28 62
e 28 63
e 28 64
e 28 65
e 28 72
e 28 73
e 28 75
e 28 77
e 29 30
e 29 32
e 29 35
e 29 38
e 29 41
e 29 46
e 29 47
e 29 48
e 29 49
e 29 51
e 29 53
e 29 54
e 29 55
e 29 56
e 29 57
e 29 60
e 29 62
e 29 65
e 29 66
e 29 69
e 29 71
e 29 73
e 29 74
e 29 75
e 29 77
e 29 80
e 30 37
e 30 38
e 30 43
e 30 51
e 30 54
e 30 55
e 30 56
e 30 59
e 30 61
e 30 62
e 30 63
e 30 66
e 30 69
e 30 74
e 30 75
e 30 76
e 30 80
e 31 32
e 31 34
e 31 35
e 31 38
e 31 39
e 31 40
e 31 41
e 31 44
e 31 45
e 31 47
e 31 48
e 31 55
e 31 56
e 31 57
e 31 58
e 31 62
e 31 63
e 31 64
e 31 65
e 31 66
e 31 67
e 31 68
e 31 69
e 31 70
e 31 75
e 31 78
e 32 33
e 32 38
e 32 45
e 32 47
e 32 50
e 32 53
e 32 55
e 32 56
e 32 57
e 32 60
e 32 61
e 32 70
e 32 71
e 32 73
e 32 75
e 32 77
e 32 78
e 32 79
e 33 34
e 33 36
e 33 41
e 33 43
e 33 44
e 33 47
e 33 48
e 33 50
e 33 52
e 33 55
e 33 62
e 33 64
e 33 66
e 33 73
e 33 74
e 33 76
e 33 80
e 34 37
e 34 40
e 34 47
e 34 49
e 34 54
e 34 55
e 34 58
e 34 59
e 34 60
e 34 62
e 34 67
e 34 70
e 34 76
e 34 78
e 35 38
e 35 43
e 35 45
e 35 46
e 35 50
e 35 54
e 35 55
e 35 59
e 35 61
e 35 66
e 35 67
e 35 72
e 35 75
e 35 76
e 35 77
e 35 79
e 35 80
e 36 38
e 36 41
e 36 43
e 36 45
e 36 48
e 36 53
e 36 56
e 36 64
e 36 66
e 36 67
e 36 68
e 36 69
e 36 71
e 36 74
e 36 75
e 36 79
e 36 80
e 37 39
e 37 41
e 37 43
e 37 44
e 37 48
e 37 50
e 37 56
e 37 57
e 37 66
e 37 67
e 37 68
e 37 72
e 37 73
e 37 74
e 37 79
e 38 41
e 38 46
e 38 50
e 38 52
e 38 53
e 38 58
e 38 61
e 38 67
e 38 68
e 38 69
e 38 72
e 38 73
e 38 74
e 38 76
e 38 77
e 38 79
e 39 42
e 39 44
e 39 45
e 39 49
e 39 54
e 39 59
e 39 64
e 39 70
e 39 71
e 39 72
e 39 73
e 39 74
e 39 75
e 39 77
e 39 79
e 40 43
e 40 44
e 40 45
e 40 46
e 40 54
e 40 61
e 40 62
e 40 67
e 40 73
e 40 74
e 40 76
e 40 78
e 40 80
e 41 47
e 41 48
e 41 50
e 41 53
e 41 54
e 41 56
e 41 63
e 41 64
e 41 66
e 41 72
e 41 73
e 41 79
e 41 80
e 42 45
e 42 49
e 42 52
e 42 61
e 42 63
e 42 64
e 42 65
e 42 66
e 42 70
e 42 71
e 42 78
e 43 44
e 43 46
e 43 47
e 43 48
e 43 53
e 43 54
e 43 55
e 43 57
e 43 58
e 43 59
e 43 65
e 43 67
e 43 70
e 43 73
e 43 76
e 43 78
e 43 80
e 44 46
e 44 48
e 44 50
e 44 54
e 44 55
e 44 56
e 44 63
e 44 65
e 44 66
e 44 67
e 44 74
e 44 76
e 44 79
e 45 53
e 45 54
e 45 55
e 45 57
e 45 59
e 45 60
e 45 61
e 45 62
e 45 67
e 45 70
e 45 72
e 46 49
e 46 53
e 46 58
e 46 61
e 46 67
e 46 68
e 46 72
e 46 73
e 46 74
e 46 78
e 46 80
e 47 49
e 47 50
e 47 51
e 47 53
e 47 60
e 47 63
e 47 65
e 47 67
e 47 68
e 47 71
e 47 72
e 47 75
e 47 76
e 47 77
e 48 49
e 48 53
e 48 55
e 48 59
e 48 62
e 48 64
e 48 66
e 48 68
e 48 70
e 48 72
e 48 73
e 48 75
e 48 76
e 48 78
e 48 80
e 49 50
e 49 51
e 49 53
e 49 54
e 49 55
e 49 58
e 49 60
e 49 63
e 49 64
e 49 65
e 49 66
e 49 70
e 49 75
e 49 77
e 49 78
e 49 80
e 50 53
e 50 55
e 50 60
e 50 61
e 50 65
e 50 67
e 50 68
e 50 70
e 50 77
e 51 53
e 51 55
e 51 62
e 51 63
e 51 66
e 51 67
e 51 68
e 51 69
e 51 74
e 51 75
e 51 76
e 51 80
e 52 53
e 52 56
e 52 57
e 52 58
e 52 59
e 52 64
e 52 65
e 52 66
e 52 67
e 52 69
e 52 74
e 52 75
e 52 77
e 52 78
e 52 79
e 52 80
e 53 55
e 53 56
e 53 57
e 53 58
e 53 63
e 53 64
e 53 66
e 53 68
e 53 71
e 53 72
e 53 73
e 53 74
e 53 76
e 53 78
e 54 57
e 54 58
e 54 59
e 54 64
e 54 65
e 54 66
e 54 72
e 54 77
e 54 78
e 54 79
e 54 80
e 55 57
e 55 58
e 55 62
e 55 63
e 55 64
e 55 66
e 55 68
e 55 71
e 55 75
e 55 77
e 55 78
e 55 79
e 55 80
e 56 60
e 56 68
e 56 70
e 56 75
e 56 76
e 56 80
e 57 61
e 57 64
e 57 65
e 57 67
e 57 68
e 57 70
e 57 73
e 57 76
e 58 60
e 58 68
e 58 69
e 58 73
e 58 75
e 58 78
e 58 80
e 59 60
e 59 62
e 59 65
e 59 67
e 59 68
e 59 78
e 59 80
e 60 61
e 60 62
e 60 63
e 60 67
e 60 73
e 60 74
e 60 80
e 61 63
e 61 64
e 61 65
e 61 67
e 61 69
e 61 71
e 61 73
e 61 75
e 61 79
e 61 80
e 62 63
e 62 64
e 62 70
e 62 71
e 62 72
e 62 73
e 62 75
e 63 65
e 63 68
e 63 69
e 63 71
e 63 76
e 63 80
e 64 65
e 64 66
e 64 71
e 64 72
e 64 76
e 64 78
e 65 74
e 65 77
e 65 78
e 66 68
e 66 69
e 66 71
e 66 74
e 66 78
e 67 69
e 67 72
e 67 75
e 67 77
e 68 72
e 68 73
e 68 75
e 68 76
e 68 79
e 68 80
e 69 70
e 70 71
e 70 73
e 70 74
e 70 77
e 70 78
e 71 72
e 71 73
e 71 74
e 71 80
e 72 74
e 72 75
e 72 76
e 72 78
e 72 79
e 73 78
e 73 79
e 74 77
e 74 78
e 75 76
e 76 77
e 76 79
e 79 80